NAME : rc_208.1.8107009.tour
COMMENT : Length = 8107009
COMMENT : Found by LKH [Keld Helsgaun] Tue Nov  7 19:55:59 2017
TYPE : TOUR
DIMENSION : 38
TOUR_SECTION
1
25
38
30
35
36
24
11
12
22
28
32
31
18
2
5
7
3
16
6
4
8
20
26
37
27
21
29
9
15
33
10
13
14
17
19
34
23
-1
EOF
